! xTB2 Opt

*xyzfile +1 1 preattack.xyz

%cpcm
 smd true
 SMDsolvent "WATER"
end

%geom
 scan
  B 12 23 = 2.21803, 1.19935, 21
 end
end

%pal
 nprocs 2
end
