%nproc=6
%mem=2GB
# m062x/6-31+g(d,p) opt(ts,calcfc,noeigentest) freq=noraman scrf=(smd,solvent=water)

opt2 ts taz- e paraoxon ataque do N1 (taz- c1 e Lg c1)

-1 1
 P                 -1.54311800    0.26391500    0.24035300
 O                 -0.93238700   -0.62243000   -0.93319100
 O                  0.31127100    1.42908500   -0.12299400
 O                 -2.14791300    1.56237800   -0.44340800
 C                 -0.99406600   -2.07761600   -0.87558400
 C                  0.02484400   -2.60421000   -1.85617500
 H                 -2.00843800   -2.38811900   -1.14123600
 H                 -0.77312800   -2.40311500    0.14636500
 H                 -0.00841600   -3.69696200   -1.85393800
 H                 -0.19705700   -2.25113600   -2.86666600
 H                  1.03244700   -2.28310700   -1.57823100
 C                 -2.36106800    2.74334700    0.38011000
 C                 -2.83916900    3.84367300   -0.53472600
 H                 -1.41586700    3.00066400    0.86422500
 H                 -3.10700100    2.49925700    1.14258300
 H                 -3.01889500    4.74741700    0.05340500
 H                 -2.08522900    4.06551700   -1.29454700
 H                 -3.77150200    3.55801500   -1.02866500
 O                 -1.14719500    0.17772400    1.67549400
 C                  1.50531600    0.94875600   -0.02031800
 C                  2.61955100    1.73700200   -0.45412900
 C                  1.79196300   -0.34903800    0.51140500
 C                  3.90957600    1.27084900   -0.37449200
 H                  2.41641800    2.72429700   -0.85698700
 C                  3.08494000   -0.81592600    0.59046600
 H                  0.97997100   -0.97198800    0.86748800
 C                  4.14714000   -0.01236800    0.14809500
 H                  4.74001500    1.88095700   -0.71132400
 H                  3.28637500   -1.80114400    0.99582200
 N                  5.47803500   -0.50043600    0.23215400
 O                  6.41008500    0.21603500   -0.15011000
 O                  5.68101400   -1.63244200    0.68562900
 N                 -3.11897500   -0.62130200    0.34250500
 C                 -3.53632800   -1.46183300    1.31860400
 N                 -3.97085800   -0.65064900   -0.68988300
 H                 -2.98923500   -1.59743800    2.23837600
 C                 -4.70569000   -1.99837200    0.83711500
 N                 -4.93609000   -1.47378700   -0.39737200
 H                 -5.37953300   -2.70701100    1.29263800










