!B3LYP D3BJ ZORA ZORA-def2-TZVPP def2-TZVPP/C SARC/J RI-SOMF(1X) TightSCF CPCM(water) MORead

%MOInp "C1-solv-ch2cl2.gbw"

%Geom
InHess Read
InHessName "C1-solv-ch2cl2.hess"
end

%TDDFT
Nroots  60
doSOC true
end

%CPCM
SMD True
SMDSolvent "dichloromethane"
end

%PAL 
NProcs 32
end

*xyzfile 0 1 C1-solv-ch2cl2.xyz
