!B3LYP D3BJ ZORA ZORA-def2-TZVPP def2-TZVPP/C SARC/J TightSCF TightOPT CPCM(water) MORead KeepDens

%MOInp "C2-freq.gbw"

%Geom
InHess Read
InHessName "C2-freq.hess"
end

%CPCM
SMD True
SMDSolvent "acetonitrile"
end

%PAL 
NProcs 32
end

*xyzfile 0 1 C2-freq.xyz
