!M06L D3zero ZORA ZORA-def2-TZVPP SARC/J TightSCF TightOPT Freq DefGrid3

%basis
    NewGTO Re "SARC-ZORA-TZVP" end
        NewAuxGTO Re "SARC/J" end
end

%PAL
        nprocs 8
end

%MaxCore 1425

*xyzfile 0 1 G010.xyz        
