%nprocs=4
%mem=2GB
# freq=noraman 6-311++g(d,p) scrf=(smd,solvent=ethanol) m062x temperature=353

TSS 1

0 1
 C                 -4.44460900    0.39153000    0.00320200
 C                 -3.55388200    1.46049200   -0.12110100
 C                 -2.18326600    1.24051700   -0.02209400
 C                 -1.68662700   -0.05056300    0.19188900
 C                 -2.58088100   -1.11759000    0.31580100
 C                 -3.95579200   -0.89476800    0.22471500
 H                 -5.51458600    0.56276100   -0.07043000
 H                 -3.92925600    2.46513400   -0.29230800
 H                 -2.21918400   -2.12573900    0.49105400
 H                 -4.64345500   -1.72879700    0.32860500
 C                 -0.19767700   -0.24362000    0.31123600
 C                  0.33798000   -1.61919400    0.62145200
 H                  0.14427500   -1.82301700    1.68170200
 H                 -0.12942600   -2.39973300    0.02134300
 H                  1.41737900   -1.63519100    0.45645400
 O                  0.49187800    0.76393200    0.61779700
 N                  0.15819200   -0.38901300   -1.79172600
 H                 -0.20931600   -1.17966400   -2.31678700
 H                  1.17728600   -0.38782500   -1.84481600
 H                  1.94534000    0.62672800    0.82076100
 O                  2.96564500    0.60172500    1.02314900
 C                  3.66194400    0.20837000   -0.02445100
 C                  5.14068200    0.14914400    0.22436800
 H                  5.49405200    1.13103500    0.55084700
 H                  5.34105200   -0.56179300    1.03111000
 H                  5.66508000   -0.15646000   -0.68010000
 O                  3.14275800   -0.08408200   -1.09789100
 H                 -1.48675600    2.06857800   -0.11349200
 H                 -0.18930300    0.46856600   -2.21640500

