! {{ dft_level }} {{ dft_basis_set }} 
! Opt

*xyzfile {{ charge }} {{ mult }} {{ xyz_file }}

{% if solvation -%}
%cpcm
 smd true
 smdsolvent "{{ solvent }}"
end

{% endif -%} 

%geom
 scan
  B 12 23 = 2.21803, 1.19935, 21 # B atom1 atom2 = beginning, end, steps 
 end
end
